20
0 1 0.48 0.14
0 2 0.48 0.16
0 3 0.72 0.08
0 4 0.64 0.21
0 5 0.56 0.26
0 6 0.62 0.18
0 7 0.75 0.08
0 8 0.63 0.12
0 9 0.57 0.14
0 10 0.56 0.06
0 11 0.74 0.0
0 12 0.35 0.14
0 13 0.78 0.06
0 14 0.54 0.16
0 15 0.68 0.13
0 16 0.64 0.14
0 17 0.64 0.2
0 18 0.52 0.19
0 19 0.74 0.12
1 2 0.59 0.19
1 3 0.34 0.22
1 4 0.24 0.22
1 5 0.4 0.14
1 6 0.38 0.28
1 7 0.64 0.22
1 8 0.44 0.15
1 9 0.76 0.28
1 10 0.56 0.08
1 11 0.68 0.14
1 12 0.56 0.08
1 13 0.38 0.2
1 14 0.56 0.06
1 15 0.54 0.22
1 16 0.52 0.28
1 17 0.82 0.34
1 18 0.41 0.18
1 19 0.44 0.23
2 3 0.54 0.24
2 4 0.47 0.24
2 5 0.6 0.32
2 6 0.77 0.32
2 7 0.42 0.18
2 8 0.15 0.04
2 9 0.69 0.17
2 10 0.34 0.17
2 11 0.36 0.16
2 12 0.65 0.18
2 13 0.48 0.22
2 14 0.49 0.16
2 15 0.62 0.27
2 16 0.34 0.28
2 17 0.63 0.23
2 18 0.44 0.04
2 19 0.72 0.26
3 4 0.42 0.29
3 5 0.52 0.34
3 6 0.46 0.26
3 7 0.64 0.16
3 8 0.57 0.2
3 9 0.65 0.22
3 10 0.64 0.14
3 11 0.47 0.08
3 12 0.5 0.22
3 13 0.7 0.14
3 14 0.5 0.24
3 15 0.77 0.21
3 16 0.56 0.22
3 17 0.48 0.28
3 18 0.65 0.27
3 19 0.78 0.2
4 5 0.64 0.36
4 6 0.43 0.08
4 7 0.48 0.29
4 8 0.59 0.28
4 9 0.52 0.2
4 10 0.42 0.15
4 11 0.76 0.21
4 12 0.42 0.23
4 13 0.62 0.2
4 14 0.63 0.25
4 15 0.53 0.27
4 16 0.76 0.28
4 17 0.69 0.26
4 18 0.65 0.2
4 19 0.6 0.26
5 6 0.62 0.37
5 7 0.26 0.18
5 8 0.47 0.29
5 9 0.66 0.33
5 10 0.65 0.22
5 11 0.8 0.26
5 12 0.29 0.19
5 13 0.74 0.25
5 14 0.54 0.2
5 15 0.52 0.2
5 16 0.63 0.33
5 17 0.49 0.39
5 18 0.39 0.28
5 19 0.57 0.19
6 7 0.48 0.26
6 8 0.62 0.3
6 9 0.73 0.2
6 10 0.72 0.23
6 11 0.56 0.18
6 12 0.74 0.2
6 13 0.56 0.12
6 14 0.5 0.22
6 15 0.78 0.19
6 16 0.51 0.2
6 17 0.56 0.23
6 18 0.65 0.28
6 19 0.82 0.18
7 8 0.54 0.2
7 9 0.53 0.22
7 10 0.39 0.14
7 11 0.67 0.08
7 12 0.55 0.22
7 13 0.65 0.14
7 14 0.38 0.24
7 15 0.38 0.21
7 16 0.69 0.16
7 17 0.36 0.28
7 18 0.23 0.14
7 19 0.48 0.2
8 9 0.62 0.21
8 10 0.49 0.18
8 11 0.51 0.12
8 12 0.5 0.22
8 13 0.54 0.18
8 14 0.64 0.2
8 15 0.77 0.23
8 16 0.42 0.26
8 17 0.78 0.27
8 18 0.59 0.08
8 19 0.72 0.22
9 10 0.35 0.2
9 11 0.41 0.14
9 12 0.62 0.28
9 13 0.58 0.08
9 14 0.5 0.26
9 15 0.67 0.15
9 16 0.6 0.16
9 17 0.17 0.06
9 18 0.46 0.21
9 19 0.77 0.14
10 11 0.56 0.06
10 12 0.5 0.08
10 13 0.7 0.12
10 14 0.63 0.1
10 15 0.62 0.19
10 16 0.68 0.2
10 17 0.52 0.26
10 18 0.48 0.13
10 19 0.52 0.18
11 12 0.72 0.14
11 13 0.3 0.06
11 14 0.73 0.16
11 15 0.46 0.13
11 16 0.44 0.14
11 17 0.38 0.2
11 18 0.8 0.19
11 19 0.36 0.12
12 13 0.68 0.2
12 14 0.53 0.02
12 15 0.64 0.14
12 16 0.75 0.28
12 17 0.78 0.34
12 18 0.38 0.14
12 19 0.54 0.15
13 14 0.72 0.22
13 15 0.64 0.07
13 16 0.14 0.08
13 17 0.58 0.14
13 18 0.61 0.25
13 19 0.54 0.06
14 15 0.54 0.16
14 16 0.58 0.3
14 17 0.35 0.32
14 18 0.15 0.12
14 19 0.44 0.17
15 16 0.78 0.15
15 17 0.5 0.21
15 18 0.61 0.28
15 19 0.1 0.01
16 17 0.54 0.22
16 18 0.54 0.3
16 19 0.68 0.14
17 18 0.5 0.27
17 19 0.6 0.2
18 19 0.59 0.29
